% File represents an instance of a Composite Structure problem to be solved by a CP framework
% Created on 2025-03-26 10:41:27.416
T = 50;
n = 16;
m = 24;
edges = [(1, 2),
(5, 6),
(9, 10),
(13, 14),
(2, 3),
(6, 7),
(10, 11),
(14, 15),
(4, 3),
(8, 7),
(12, 11),
(16, 15),
(1, 5),
(5, 9),
(9, 13),
(2, 6),
(6, 10),
(10, 14),
(3, 7),
(7, 11),
(11, 15),
(4, 8),
(8, 12),
(12, 16)];
counts = [|16, 8, 16, 10,
|16, 6, 16, 8,
|16, 6, 16, 6,
|16, 8, 16, 6,
|14, 8, 14, 10,
|14, 6, 14, 6,
|14, 4, 14, 6,
|16, 4, 16, 6,
|14, 8, 14, 6,
|14, 2, 14, 6,
|14, 2, 14, 4,
|16, 2, 16, 4,
|12, 6, 12, 6,
|12, 2, 12, 4,
|12, 2, 12, 2,
|14, 2, 14, 4|];
